Si
1.0
3.8400000000 0.0000000000 0.0000000000
0.0000000000 3.8400000000 0.0000000000
0.0000000000 0.0000000000 3.8400000000
Si
2
Direct
0.000000000 0.000000000 0.000000000
0.250000000 0.250000000 0.250000000
